s td 39 17 55
b 1 15 19
b 2 44 53
b 3 6 16 45
b 4 6 46 54
b 5 3 7 15 32
b 6 7 36 41 49
b 7 1 2 7 13 30 33 36 38 46 48 55
b 8 1 4 7 10 13 15 17 24 30 32 33 36 38 39 46 48 55
b 9 1 4 7 10 13 15 16 17 24 30 32 33 36 39 46 48 55
b 10 1 4 7 10 13 15 16 24 30 32 33 36 39 46 48 49
b 11 1 4 6 10 13 15 16 24 30 32 39 46 48 49
b 12 1 4 6 10 13 15 16 24 30 37 39 48 49
b 13 4 5 6 10 13 15 16 24 37 39 48 49
b 14 4 5 6 10 13 15 24 26 39
b 15 4 5 6 10 15 26 34 39
b 16 6 23 26 34 39
b 17 12 23 26 39
b 18 13 16 17 24 32 47
b 19 1 4 7 10 15 17 24 29 30 32 33 36 38 39 46 48 55
b 20 1 7 11 15 17 29 30 33 38 39 46
b 21 1 7 8 11 17 29 38
b 22 1 4 7 10 14 15 17 24 29 32 33 38 39 46 48 55
b 23 9 10 14 24 55
b 24 1 4 7 10 14 17 28 29 32 33 38 39 46 48 55
b 25 1 4 7 14 28 29 32 33 38 46 51 55
b 26 1 7 14 28 29 32 43 46 51 55
b 27 7 14 28 29 31 43 46 51 55
b 28 14 28 29 31 43 46 50 55
b 29 20 28 29 43 46 50
b 30 7 35 43 46
b 31 7 10 17 21 28 32
b 32 28 33 39 53
b 33 1 22 29 48 55
b 34 4 15 17 24 27 29 30 32 39
b 35 17 25 27 39
b 36 2 7 13 18 33 36 38 46 48 55
b 37 2 13 18 33 36 38 46 52 55
b 38 2 13 18 36 38 40 46 52
b 39 2 13 36 38 40 42 46
1 8
2 32
3 11
4 11
5 8
6 10
7 8
7 36
8 9
8 19
9 10
9 18
10 11
11 12
12 13
13 14
14 15
15 16
16 17
19 20
19 22
19 33
19 34
20 21
22 23
22 24
24 25
24 31
24 32
25 26
26 27
26 30
27 28
28 29
34 35
36 37
37 38
38 39
